1600 3200
1 2 5
1 41 4
2 3 3
2 42 1
3 4 4
3 43 4
4 5 5
4 44 4
5 6 5
5 45 4
6 7 1
6 46 5
7 8 4
7 47 4
8 9 5
8 48 3
9 10 2
9 49 3
10 11 2
10 50 4
11 12 3
11 51 3
12 13 5
12 52 2
13 14 4
13 53 4
14 15 3
14 54 5
15 16 5
15 55 5
16 17 2
16 56 1
17 18 3
17 57 2
18 19 1
18 58 5
19 20 3
19 59 1
20 21 3
20 60 2
21 22 4
21 61 2
22 23 4
22 62 2
23 24 1
23 63 2
24 25 1
24 64 5
25 26 5
25 65 1
26 27 5
26 66 4
27 28 4
27 67 2
28 29 2
28 68 5
29 30 4
29 69 5
30 31 3
30 70 4
31 32 1
31 71 4
32 33 4
32 72 5
33 34 1
33 73 3
34 35 3
34 74 3
35 36 1
35 75 4
36 37 2
36 76 5
37 38 4
37 77 3
38 39 5
38 78 1
39 40 3
39 79 5
40 80 5
41 42 1
41 81 2
42 43 1
42 82 5
43 44 5
43 83 5
44 45 5
44 84 1
45 46 5
45 85 3
46 47 1
46 86 2
47 48 4
47 87 2
48 49 2
48 88 4
49 50 4
49 89 2
50 51 1
50 90 3
51 52 4
51 91 3
52 53 3
52 92 4
53 54 1
53 93 3
54 55 5
54 94 1
55 56 1
55 95 3
56 57 3
56 96 3
57 58 3
57 97 2
58 59 2
58 98 5
59 60 1
59 99 4
60 61 4
60 100 5
61 62 4
61 101 5
62 63 2
62 102 2
63 64 4
63 103 1
64 65 3
64 104 1
65 66 5
65 105 3
66 67 1
66 106 5
67 68 2
67 107 5
68 69 1
68 108 2
69 70 3
69 109 3
70 71 3
70 110 4
71 72 5
71 111 5
72 73 4
72 112 3
73 74 4
73 113 1
74 75 5
74 114 4
75 76 3
75 115 1
76 77 1
76 116 5
77 78 4
77 117 1
78 79 3
78 118 3
79 80 3
79 119 4
80 120 4
81 82 3
81 121 1
82 83 4
82 122 4
83 84 2
83 123 1
84 85 5
84 124 2
85 86 3
85 125 2
86 87 1
86 126 4
87 88 5
87 127 5
88 89 5
88 128 3
89 90 2
89 129 4
90 91 1
90 130 3
91 92 2
91 131 2
92 93 1
92 132 5
93 94 4
93 133 5
94 95 4
94 134 5
95 96 4
95 135 3
96 97 2
96 136 4
97 98 1
97 137 2
98 99 5
98 138 3
99 100 3
99 139 5
100 101 3
100 140 1
101 102 5
101 141 2
102 103 4
102 142 3
103 104 3
103 143 2
104 105 5
104 144 5
105 106 3
105 145 1
106 107 1
106 146 1
107 108 3
107 147 4
108 109 1
108 148 2
109 110 1
109 149 4
110 111 3
110 150 3
111 112 2
111 151 4
112 113 5
112 152 4
113 114 4
113 153 3
114 115 5
114 154 5
115 116 5
115 155 3
116 117 4
116 156 5
117 118 5
117 157 4
118 119 1
118 158 2
119 120 1
119 159 4
120 160 4
121 122 5
121 161 2
122 123 3
122 162 5
123 124 1
123 163 2
124 125 4
124 164 2
125 126 1
125 165 2
126 127 3
126 166 5
127 128 3
127 167 3
128 129 3
128 168 3
129 130 3
129 169 5
130 131 2
130 170 2
131 132 4
131 171 3
132 133 1
132 172 3
133 134 2
133 173 3
134 135 4
134 174 5
135 136 4
135 175 3
136 137 1
136 176 1
137 138 3
137 177 3
138 139 4
138 178 4
139 140 3
139 179 5
140 141 5
140 180 2
141 142 1
141 181 4
142 143 1
142 182 4
143 144 2
143 183 4
144 145 1
144 184 5
145 146 1
145 185 5
146 147 5
146 186 3
147 148 5
147 187 2
148 149 2
148 188 3
149 150 4
149 189 4
150 151 1
150 190 2
151 152 5
151 191 4
152 153 1
152 192 4
153 154 1
153 193 1
154 155 3
154 194 1
155 156 4
155 195 1
156 157 4
156 196 5
157 158 4
157 197 5
158 159 4
158 198 1
159 160 2
159 199 2
160 200 4
161 162 3
161 201 1
162 163 2
162 202 3
163 164 4
163 203 5
164 165 4
164 204 2
165 166 5
165 205 5
166 167 4
166 206 1
167 168 2
167 207 5
168 169 2
168 208 1
169 170 1
169 209 5
170 171 2
170 210 1
171 172 2
171 211 2
172 173 5
172 212 2
173 174 2
173 213 5
174 175 4
174 214 5
175 176 3
175 215 3
176 177 1
176 216 1
177 178 2
177 217 4
178 179 4
178 218 2
179 180 2
179 219 4
180 181 3
180 220 2
181 182 5
181 221 3
182 183 1
182 222 2
183 184 2
183 223 2
184 185 1
184 224 4
185 186 5
185 225 5
186 187 2
186 226 3
187 188 1
187 227 1
188 189 4
188 228 5
189 190 2
189 229 3
190 191 1
190 230 1
191 192 3
191 231 3
192 193 2
192 232 5
193 194 1
193 233 3
194 195 3
194 234 2
195 196 4
195 235 2
196 197 1
196 236 3
197 198 1
197 237 2
198 199 1
198 238 5
199 200 2
199 239 2
200 240 3
201 202 2
201 241 4
202 203 5
202 242 2
203 204 2
203 243 4
204 205 1
204 244 5
205 206 3
205 245 4
206 207 4
206 246 5
207 208 5
207 247 4
208 209 2
208 248 3
209 210 1
209 249 1
210 211 5
210 250 2
211 212 3
211 251 4
212 213 3
212 252 3
213 214 3
213 253 1
214 215 4
214 254 1
215 216 5
215 255 5
216 217 3
216 256 4
217 218 1
217 257 5
218 219 3
218 258 3
219 220 1
219 259 2
220 221 3
220 260 3
221 222 1
221 261 3
222 223 3
222 262 5
223 224 3
223 263 5
224 225 1
224 264 1
225 226 5
225 265 2
226 227 4
226 266 5
227 228 5
227 267 4
228 229 1
228 268 4
229 230 4
229 269 5
230 231 3
230 270 4
231 232 5
231 271 4
232 233 1
232 272 3
233 234 3
233 273 3
234 235 5
234 274 2
235 236 2
235 275 3
236 237 3
236 276 1
237 238 3
237 277 5
238 239 2
238 278 4
239 240 1
239 279 5
240 280 2
241 242 4
241 281 1
242 243 4
242 282 2
243 244 4
243 283 2
244 245 2
244 284 1
245 246 3
245 285 5
246 247 1
246 286 1
247 248 5
247 287 3
248 249 3
248 288 5
249 250 5
249 289 1
250 251 2
250 290 4
251 252 2
251 291 4
252 253 4
252 292 3
253 254 1
253 293 2
254 255 1
254 294 2
255 256 4
255 295 4
256 257 3
256 296 4
257 258 5
257 297 3
258 259 1
258 298 3
259 260 5
259 299 4
260 261 1
260 300 4
261 262 4
261 301 5
262 263 4
262 302 5
263 264 1
263 303 1
264 265 1
264 304 1
265 266 3
265 305 2
266 267 3
266 306 1
267 268 3
267 307 4
268 269 5
268 308 4
269 270 4
269 309 5
270 271 1
270 310 2
271 272 2
271 311 2
272 273 5
272 312 1
273 274 1
273 313 5
274 275 3
274 314 1
275 276 2
275 315 5
276 277 2
276 316 4
277 278 5
277 317 5
278 279 5
278 318 2
279 280 2
279 319 3
280 320 2
281 282 4
281 321 5
282 283 5
282 322 4
283 284 5
283 323 3
284 285 2
284 324 1
285 286 2
285 325 1
286 287 1
286 326 5
287 288 5
287 327 1
288 289 3
288 328 5
289 290 3
289 329 3
290 291 2
290 330 2
291 292 5
291 331 1
292 293 5
292 332 4
293 294 5
293 333 3
294 295 3
294 334 3
295 296 3
295 335 4
296 297 5
296 336 1
297 298 3
297 337 1
298 299 1
298 338 4
299 300 3
299 339 1
300 301 5
300 340 1
301 302 3
301 341 3
302 303 3
302 342 4
303 304 3
303 343 3
304 305 1
304 344 4
305 306 3
305 345 5
306 307 4
306 346 1
307 308 3
307 347 3
308 309 4
308 348 5
309 310 5
309 349 3
310 311 2
310 350 5
311 312 3
311 351 4
312 313 3
312 352 1
313 314 1
313 353 2
314 315 1
314 354 2
315 316 2
315 355 3
316 317 4
316 356 1
317 318 4
317 357 2
318 319 2
318 358 4
319 320 5
319 359 3
320 360 1
321 322 4
321 361 1
322 323 5
322 362 5
323 324 2
323 363 4
324 325 3
324 364 4
325 326 5
325 365 2
326 327 1
326 366 3
327 328 1
327 367 5
328 329 3
328 368 3
329 330 1
329 369 2
330 331 5
330 370 5
331 332 2
331 371 5
332 333 1
332 372 3
333 334 5
333 373 3
334 335 2
334 374 1
335 336 2
335 375 2
336 337 5
336 376 3
337 338 5
337 377 2
338 339 3
338 378 2
339 340 4
339 379 5
340 341 5
340 380 3
341 342 4
341 381 1
342 343 5
342 382 4
343 344 1
343 383 5
344 345 5
344 384 5
345 346 4
345 385 3
346 347 2
346 386 3
347 348 5
347 387 2
348 349 3
348 388 5
349 350 2
349 389 3
350 351 2
350 390 1
351 352 3
351 391 1
352 353 2
352 392 3
353 354 3
353 393 4
354 355 2
354 394 2
355 356 5
355 395 4
356 357 4
356 396 4
357 358 1
357 397 5
358 359 3
358 398 2
359 360 3
359 399 2
360 400 4
361 362 4
361 401 2
362 363 1
362 402 5
363 364 1
363 403 5
364 365 1
364 404 3
365 366 4
365 405 4
366 367 2
366 406 2
367 368 2
367 407 4
368 369 3
368 408 5
369 370 3
369 409 4
370 371 3
370 410 1
371 372 1
371 411 3
372 373 2
372 412 5
373 374 3
373 413 2
374 375 2
374 414 4
375 376 3
375 415 2
376 377 5
376 416 5
377 378 1
377 417 2
378 379 3
378 418 2
379 380 4
379 419 3
380 381 4
380 420 3
381 382 4
381 421 2
382 383 3
382 422 2
383 384 4
383 423 5
384 385 2
384 424 5
385 386 5
385 425 4
386 387 4
386 426 3
387 388 1
387 427 1
388 389 5
388 428 3
389 390 3
389 429 3
390 391 1
390 430 2
391 392 2
391 431 2
392 393 5
392 432 5
393 394 5
393 433 5
394 395 2
394 434 1
395 396 2
395 435 4
396 397 5
396 436 1
397 398 5
397 437 4
398 399 4
398 438 1
399 400 3
399 439 1
400 440 3
401 402 5
401 441 5
402 403 4
402 442 5
403 404 4
403 443 3
404 405 2
404 444 2
405 406 2
405 445 5
406 407 2
406 446 4
407 408 3
407 447 1
408 409 3
408 448 3
409 410 1
409 449 2
410 411 5
410 450 1
411 412 1
411 451 3
412 413 4
412 452 2
413 414 1
413 453 2
414 415 1
414 454 2
415 416 4
415 455 4
416 417 2
416 456 4
417 418 2
417 457 5
418 419 4
418 458 1
419 420 5
419 459 4
420 421 4
420 460 4
421 422 3
421 461 2
422 423 2
422 462 2
423 424 2
423 463 1
424 425 2
424 464 3
425 426 2
425 465 5
426 427 2
426 466 5
427 428 4
427 467 2
428 429 1
428 468 4
429 430 3
429 469 2
430 431 2
430 470 4
431 432 4
431 471 5
432 433 4
432 472 2
433 434 3
433 473 4
434 435 5
434 474 2
435 436 5
435 475 2
436 437 2
436 476 5
437 438 5
437 477 5
438 439 4
438 478 3
439 440 5
439 479 3
440 480 4
441 442 1
441 481 5
442 443 5
442 482 5
443 444 3
443 483 5
444 445 4
444 484 2
445 446 4
445 485 3
446 447 3
446 486 5
447 448 1
447 487 2
448 449 4
448 488 1
449 450 1
449 489 1
450 451 2
450 490 1
451 452 5
451 491 3
452 453 1
452 492 3
453 454 2
453 493 1
454 455 1
454 494 2
455 456 4
455 495 1
456 457 4
456 496 2
457 458 4
457 497 1
458 459 1
458 498 3
459 460 2
459 499 3
460 461 4
460 500 2
461 462 4
461 501 3
462 463 3
462 502 3
463 464 2
463 503 4
464 465 4
464 504 4
465 466 4
465 505 5
466 467 5
466 506 3
467 468 2
467 507 1
468 469 4
468 508 3
469 470 3
469 509 2
470 471 5
470 510 3
471 472 4
471 511 1
472 473 4
472 512 1
473 474 5
473 513 4
474 475 2
474 514 1
475 476 4
475 515 3
476 477 2
476 516 1
477 478 5
477 517 1
478 479 3
478 518 1
479 480 3
479 519 3
480 520 5
481 482 5
481 521 1
482 483 2
482 522 5
483 484 5
483 523 2
484 485 1
484 524 4
485 486 4
485 525 5
486 487 1
486 526 3
487 488 3
487 527 2
488 489 4
488 528 1
489 490 5
489 529 2
490 491 3
490 530 5
491 492 3
491 531 5
492 493 4
492 532 3
493 494 1
493 533 1
494 495 1
494 534 1
495 496 2
495 535 5
496 497 3
496 536 5
497 498 4
497 537 2
498 499 2
498 538 1
499 500 1
499 539 5
500 501 5
500 540 5
501 502 2
501 541 5
502 503 1
502 542 2
503 504 2
503 543 5
504 505 1
504 544 1
505 506 4
505 545 3
506 507 2
506 546 5
507 508 5
507 547 5
508 509 4
508 548 2
509 510 4
509 549 5
510 511 5
510 550 5
511 512 1
511 551 5
512 513 5
512 552 3
513 514 1
513 553 1
514 515 4
514 554 3
515 516 1
515 555 5
516 517 2
516 556 5
517 518 5
517 557 5
518 519 5
518 558 2
519 520 1
519 559 3
520 560 2
521 522 2
521 561 5
522 523 4
522 562 1
523 524 5
523 563 1
524 525 4
524 564 5
525 526 3
525 565 2
526 527 4
526 566 3
527 528 4
527 567 2
528 529 4
528 568 1
529 530 4
529 569 2
530 531 4
530 570 3
531 532 3
531 571 5
532 533 2
532 572 5
533 534 2
533 573 2
534 535 4
534 574 5
535 536 2
535 575 2
536 537 2
536 576 3
537 538 1
537 577 5
538 539 5
538 578 4
539 540 1
539 579 2
540 541 2
540 580 4
541 542 3
541 581 1
542 543 5
542 582 1
543 544 4
543 583 2
544 545 4
544 584 3
545 546 1
545 585 5
546 547 4
546 586 5
547 548 3
547 587 3
548 549 1
548 588 4
549 550 4
549 589 5
550 551 4
550 590 5
551 552 5
551 591 2
552 553 2
552 592 2
553 554 3
553 593 5
554 555 2
554 594 5
555 556 5
555 595 3
556 557 1
556 596 4
557 558 2
557 597 4
558 559 4
558 598 4
559 560 3
559 599 4
560 600 2
561 562 3
561 601 5
562 563 5
562 602 3
563 564 5
563 603 5
564 565 3
564 604 5
565 566 2
565 605 5
566 567 4
566 606 4
567 568 2
567 607 4
568 569 5
568 608 4
569 570 2
569 609 2
570 571 4
570 610 3
571 572 3
571 611 4
572 573 2
572 612 5
573 574 4
573 613 2
574 575 3
574 614 5
575 576 2
575 615 4
576 577 3
576 616 4
577 578 3
577 617 5
578 579 1
578 618 1
579 580 3
579 619 1
580 581 3
580 620 3
581 582 2
581 621 5
582 583 4
582 622 4
583 584 3
583 623 1
584 585 5
584 624 3
585 586 4
585 625 4
586 587 3
586 626 3
587 588 4
587 627 3
588 589 2
588 628 5
589 590 3
589 629 1
590 591 1
590 630 3
591 592 1
591 631 5
592 593 3
592 632 4
593 594 3
593 633 4
594 595 2
594 634 4
595 596 1
595 635 3
596 597 1
596 636 2
597 598 1
597 637 1
598 599 5
598 638 1
599 600 4
599 639 2
600 640 1
601 602 5
601 641 3
602 603 1
602 642 4
603 604 3
603 643 3
604 605 5
604 644 5
605 606 3
605 645 2
606 607 1
606 646 2
607 608 2
607 647 1
608 609 2
608 648 3
609 610 4
609 649 3
610 611 1
610 650 4
611 612 4
611 651 4
612 613 5
612 652 1
613 614 5
613 653 1
614 615 5
614 654 2
615 616 3
615 655 5
616 617 3
616 656 4
617 618 4
617 657 5
618 619 4
618 658 5
619 620 5
619 659 2
620 621 5
620 660 1
621 622 5
621 661 2
622 623 2
622 662 2
623 624 1
623 663 2
624 625 1
624 664 1
625 626 5
625 665 4
626 627 4
626 666 5
627 628 1
627 667 4
628 629 1
628 668 2
629 630 2
629 669 3
630 631 3
630 670 2
631 632 5
631 671 1
632 633 2
632 672 2
633 634 5
633 673 5
634 635 4
634 674 5
635 636 5
635 675 4
636 637 5
636 676 3
637 638 1
637 677 4
638 639 1
638 678 4
639 640 5
639 679 2
640 680 3
641 642 4
641 681 1
642 643 3
642 682 4
643 644 1
643 683 1
644 645 3
644 684 2
645 646 4
645 685 4
646 647 3
646 686 1
647 648 3
647 687 5
648 649 1
648 688 5
649 650 4
649 689 5
650 651 5
650 690 4
651 652 5
651 691 2
652 653 3
652 692 5
653 654 5
653 693 3
654 655 1
654 694 1
655 656 4
655 695 1
656 657 5
656 696 3
657 658 4
657 697 5
658 659 2
658 698 1
659 660 2
659 699 1
660 661 5
660 700 3
661 662 4
661 701 5
662 663 2
662 702 2
663 664 1
663 703 2
664 665 3
664 704 4
665 666 4
665 705 1
666 667 1
666 706 3
667 668 5
667 707 4
668 669 4
668 708 3
669 670 2
669 709 2
670 671 4
670 710 5
671 672 4
671 711 3
672 673 2
672 712 1
673 674 2
673 713 2
674 675 4
674 714 1
675 676 1
675 715 1
676 677 4
676 716 5
677 678 3
677 717 1
678 679 4
678 718 1
679 680 2
679 719 4
680 720 5
681 682 5
681 721 1
682 683 5
682 722 5
683 684 1
683 723 2
684 685 2
684 724 3
685 686 2
685 725 4
686 687 1
686 726 1
687 688 2
687 727 1
688 689 4
688 728 3
689 690 1
689 729 1
690 691 4
690 730 1
691 692 1
691 731 3
692 693 4
692 732 5
693 694 5
693 733 5
694 695 3
694 734 2
695 696 2
695 735 1
696 697 1
696 736 1
697 698 5
697 737 4
698 699 5
698 738 2
699 700 3
699 739 1
700 701 5
700 740 5
701 702 1
701 741 5
702 703 1
702 742 4
703 704 5
703 743 2
704 705 5
704 744 1
705 706 5
705 745 3
706 707 4
706 746 5
707 708 2
707 747 4
708 709 3
708 748 5
709 710 5
709 749 4
710 711 4
710 750 2
711 712 2
711 751 1
712 713 1
712 752 5
713 714 5
713 753 5
714 715 2
714 754 5
715 716 3
715 755 3
716 717 2
716 756 3
717 718 1
717 757 5
718 719 5
718 758 3
719 720 2
719 759 5
720 760 2
721 722 3
721 761 4
722 723 5
722 762 1
723 724 4
723 763 2
724 725 5
724 764 4
725 726 4
725 765 5
726 727 1
726 766 2
727 728 2
727 767 3
728 729 2
728 768 4
729 730 1
729 769 5
730 731 4
730 770 4
731 732 1
731 771 5
732 733 1
732 772 5
733 734 1
733 773 3
734 735 3
734 774 4
735 736 1
735 775 5
736 737 2
736 776 5
737 738 1
737 777 3
738 739 3
738 778 5
739 740 2
739 779 5
740 741 5
740 780 3
741 742 2
741 781 5
742 743 1
742 782 4
743 744 4
743 783 1
744 745 4
744 784 4
745 746 4
745 785 4
746 747 5
746 786 1
747 748 2
747 787 1
748 749 5
748 788 2
749 750 3
749 789 2
750 751 2
750 790 4
751 752 1
751 791 2
752 753 1
752 792 2
753 754 3
753 793 1
754 755 4
754 794 3
755 756 3
755 795 1
756 757 1
756 796 1
757 758 4
757 797 1
758 759 3
758 798 5
759 760 3
759 799 5
760 800 4
761 762 4
761 801 2
762 763 1
762 802 3
763 764 4
763 803 2
764 765 1
764 804 5
765 766 2
765 805 2
766 767 4
766 806 4
767 768 2
767 807 4
768 769 1
768 808 2
769 770 4
769 809 2
770 771 2
770 810 4
771 772 1
771 811 4
772 773 4
772 812 2
773 774 4
773 813 1
774 775 3
774 814 1
775 776 2
775 815 3
776 777 2
776 816 2
777 778 5
777 817 1
778 779 1
778 818 2
779 780 5
779 819 2
780 781 2
780 820 1
781 782 5
781 821 1
782 783 1
782 822 4
783 784 4
783 823 4
784 785 5
784 824 4
785 786 5
785 825 4
786 787 5
786 826 3
787 788 4
787 827 2
788 789 4
788 828 3
789 790 4
789 829 3
790 791 2
790 830 2
791 792 4
791 831 2
792 793 4
792 832 4
793 794 2
793 833 3
794 795 1
794 834 5
795 796 1
795 835 5
796 797 3
796 836 3
797 798 4
797 837 3
798 799 3
798 838 1
799 800 1
799 839 2
800 840 4
801 802 5
801 841 1
802 803 3
802 842 5
803 804 4
803 843 2
804 805 2
804 844 3
805 806 5
805 845 3
806 807 1
806 846 1
807 808 2
807 847 4
808 809 3
808 848 3
809 810 4
809 849 4
810 811 2
810 850 2
811 812 2
811 851 2
812 813 2
812 852 1
813 814 3
813 853 4
814 815 3
814 854 2
815 816 5
815 855 2
816 817 5
816 856 5
817 818 3
817 857 3
818 819 5
818 858 5
819 820 1
819 859 5
820 821 3
820 860 2
821 822 3
821 861 1
822 823 2
822 862 2
823 824 1
823 863 2
824 825 4
824 864 2
825 826 2
825 865 1
826 827 3
826 866 3
827 828 1
827 867 5
828 829 2
828 868 2
829 830 3
829 869 3
830 831 2
830 870 2
831 832 4
831 871 3
832 833 4
832 872 2
833 834 1
833 873 4
834 835 1
834 874 4
835 836 5
835 875 2
836 837 3
836 876 2
837 838 5
837 877 2
838 839 5
838 878 2
839 840 4
839 879 5
840 880 3
841 842 2
841 881 4
842 843 1
842 882 1
843 844 3
843 883 5
844 845 4
844 884 4
845 846 3
845 885 3
846 847 4
846 886 5
847 848 2
847 887 1
848 849 5
848 888 1
849 850 5
849 889 5
850 851 1
850 890 3
851 852 5
851 891 1
852 853 1
852 892 4
853 854 4
853 893 3
854 855 2
854 894 5
855 856 1
855 895 5
856 857 3
856 896 4
857 858 2
857 897 4
858 859 4
858 898 2
859 860 3
859 899 1
860 861 3
860 900 5
861 862 3
861 901 3
862 863 5
862 902 5
863 864 5
863 903 5
864 865 5
864 904 1
865 866 2
865 905 4
866 867 1
866 906 3
867 868 5
867 907 4
868 869 2
868 908 5
869 870 4
869 909 2
870 871 1
870 910 5
871 872 3
871 911 4
872 873 5
872 912 4
873 874 3
873 913 5
874 875 2
874 914 4
875 876 1
875 915 1
876 877 5
876 916 1
877 878 4
877 917 2
878 879 1
878 918 5
879 880 5
879 919 3
880 920 4
881 882 1
881 921 2
882 883 2
882 922 2
883 884 4
883 923 1
884 885 5
884 924 1
885 886 1
885 925 4
886 887 5
886 926 2
887 888 2
887 927 1
888 889 5
888 928 1
889 890 5
889 929 5
890 891 5
890 930 4
891 892 2
891 931 5
892 893 3
892 932 2
893 894 3
893 933 3
894 895 4
894 934 4
895 896 5
895 935 1
896 897 4
896 936 4
897 898 2
897 937 5
898 899 3
898 938 3
899 900 5
899 939 3
900 901 2
900 940 4
901 902 1
901 941 1
902 903 1
902 942 1
903 904 5
903 943 3
904 905 5
904 944 4
905 906 3
905 945 4
906 907 4
906 946 1
907 908 2
907 947 4
908 909 3
908 948 3
909 910 1
909 949 1
910 911 5
910 950 1
911 912 1
911 951 4
912 913 5
912 952 4
913 914 3
913 953 4
914 915 1
914 954 2
915 916 1
915 955 1
916 917 3
916 956 1
917 918 3
917 957 4
918 919 3
918 958 1
919 920 3
919 959 2
920 960 5
921 922 3
921 961 2
922 923 4
922 962 4
923 924 3
923 963 5
924 925 4
924 964 3
925 926 3
925 965 3
926 927 4
926 966 5
927 928 1
927 967 1
928 929 3
928 968 2
929 930 2
929 969 5
930 931 1
930 970 1
931 932 3
931 971 2
932 933 5
932 972 3
933 934 1
933 973 3
934 935 2
934 974 2
935 936 1
935 975 4
936 937 2
936 976 5
937 938 5
937 977 2
938 939 5
938 978 5
939 940 2
939 979 4
940 941 2
940 980 5
941 942 2
941 981 4
942 943 2
942 982 1
943 944 2
943 983 2
944 945 2
944 984 3
945 946 5
945 985 5
946 947 1
946 986 3
947 948 3
947 987 4
948 949 1
948 988 3
949 950 1
949 989 3
950 951 2
950 990 1
951 952 2
951 991 3
952 953 1
952 992 5
953 954 1
953 993 1
954 955 4
954 994 5
955 956 1
955 995 4
956 957 4
956 996 4
957 958 2
957 997 3
958 959 3
958 998 2
959 960 2
959 999 4
960 1000 3
961 962 2
961 1001 1
962 963 4
962 1002 4
963 964 4
963 1003 2
964 965 4
964 1004 2
965 966 3
965 1005 2
966 967 3
966 1006 5
967 968 3
967 1007 5
968 969 5
968 1008 1
969 970 2
969 1009 5
970 971 4
970 1010 3
971 972 1
971 1011 1
972 973 1
972 1012 5
973 974 4
973 1013 1
974 975 5
974 1014 5
975 976 5
975 1015 3
976 977 4
976 1016 2
977 978 1
977 1017 2
978 979 1
978 1018 1
979 980 2
979 1019 2
980 981 5
980 1020 4
981 982 1
981 1021 3
982 983 2
982 1022 4
983 984 3
983 1023 4
984 985 4
984 1024 3
985 986 2
985 1025 2
986 987 3
986 1026 4
987 988 5
987 1027 2
988 989 3
988 1028 4
989 990 1
989 1029 2
990 991 3
990 1030 4
991 992 1
991 1031 5
992 993 2
992 1032 3
993 994 2
993 1033 3
994 995 4
994 1034 5
995 996 1
995 1035 1
996 997 5
996 1036 5
997 998 1
997 1037 4
998 999 4
998 1038 3
999 1000 5
999 1039 3
1000 1040 5
1001 1002 2
1001 1041 1
1002 1003 1
1002 1042 1
1003 1004 5
1003 1043 5
1004 1005 1
1004 1044 2
1005 1006 2
1005 1045 1
1006 1007 1
1006 1046 2
1007 1008 5
1007 1047 1
1008 1009 1
1008 1048 4
1009 1010 5
1009 1049 2
1010 1011 3
1010 1050 5
1011 1012 1
1011 1051 4
1012 1013 1
1012 1052 4
1013 1014 1
1013 1053 3
1014 1015 4
1014 1054 3
1015 1016 3
1015 1055 5
1016 1017 2
1016 1056 3
1017 1018 1
1017 1057 5
1018 1019 3
1018 1058 1
1019 1020 5
1019 1059 4
1020 1021 5
1020 1060 1
1021 1022 4
1021 1061 3
1022 1023 4
1022 1062 1
1023 1024 2
1023 1063 5
1024 1025 3
1024 1064 2
1025 1026 4
1025 1065 2
1026 1027 5
1026 1066 3
1027 1028 1
1027 1067 5
1028 1029 2
1028 1068 2
1029 1030 3
1029 1069 1
1030 1031 1
1030 1070 2
1031 1032 5
1031 1071 3
1032 1033 5
1032 1072 3
1033 1034 4
1033 1073 1
1034 1035 3
1034 1074 2
1035 1036 2
1035 1075 2
1036 1037 5
1036 1076 4
1037 1038 3
1037 1077 2
1038 1039 4
1038 1078 1
1039 1040 5
1039 1079 4
1040 1080 4
1041 1042 3
1041 1081 2
1042 1043 2
1042 1082 1
1043 1044 2
1043 1083 1
1044 1045 1
1044 1084 3
1045 1046 2
1045 1085 3
1046 1047 4
1046 1086 4
1047 1048 2
1047 1087 1
1048 1049 4
1048 1088 2
1049 1050 3
1049 1089 5
1050 1051 2
1050 1090 5
1051 1052 2
1051 1091 5
1052 1053 4
1052 1092 4
1053 1054 2
1053 1093 2
1054 1055 5
1054 1094 3
1055 1056 3
1055 1095 1
1056 1057 1
1056 1096 5
1057 1058 4
1057 1097 2
1058 1059 4
1058 1098 2
1059 1060 3
1059 1099 5
1060 1061 2
1060 1100 1
1061 1062 4
1061 1101 2
1062 1063 2
1062 1102 3
1063 1064 5
1063 1103 5
1064 1065 3
1064 1104 2
1065 1066 4
1065 1105 5
1066 1067 1
1066 1106 3
1067 1068 5
1067 1107 3
1068 1069 1
1068 1108 3
1069 1070 2
1069 1109 1
1070 1071 5
1070 1110 3
1071 1072 1
1071 1111 4
1072 1073 2
1072 1112 5
1073 1074 1
1073 1113 3
1074 1075 3
1074 1114 5
1075 1076 2
1075 1115 3
1076 1077 3
1076 1116 2
1077 1078 1
1077 1117 1
1078 1079 5
1078 1118 2
1079 1080 3
1079 1119 3
1080 1120 4
1081 1082 4
1081 1121 1
1082 1083 4
1082 1122 3
1083 1084 4
1083 1123 4
1084 1085 1
1084 1124 2
1085 1086 4
1085 1125 2
1086 1087 5
1086 1126 2
1087 1088 4
1087 1127 1
1088 1089 1
1088 1128 5
1089 1090 1
1089 1129 2
1090 1091 5
1090 1130 1
1091 1092 1
1091 1131 2
1092 1093 4
1092 1132 3
1093 1094 2
1093 1133 3
1094 1095 3
1094 1134 3
1095 1096 5
1095 1135 3
1096 1097 1
1096 1136 2
1097 1098 5
1097 1137 3
1098 1099 5
1098 1138 5
1099 1100 3
1099 1139 5
1100 1101 3
1100 1140 2
1101 1102 2
1101 1141 5
1102 1103 3
1102 1142 2
1103 1104 1
1103 1143 3
1104 1105 3
1104 1144 1
1105 1106 1
1105 1145 5
1106 1107 1
1106 1146 3
1107 1108 2
1107 1147 2
1108 1109 3
1108 1148 1
1109 1110 2
1109 1149 5
1110 1111 4
1110 1150 4
1111 1112 1
1111 1151 3
1112 1113 3
1112 1152 2
1113 1114 2
1113 1153 3
1114 1115 1
1114 1154 1
1115 1116 4
1115 1155 1
1116 1117 2
1116 1156 2
1117 1118 3
1117 1157 4
1118 1119 5
1118 1158 5
1119 1120 5
1119 1159 3
1120 1160 5
1121 1122 5
1121 1161 1
1122 1123 1
1122 1162 2
1123 1124 3
1123 1163 2
1124 1125 4
1124 1164 1
1125 1126 3
1125 1165 4
1126 1127 2
1126 1166 4
1127 1128 2
1127 1167 3
1128 1129 2
1128 1168 2
1129 1130 2
1129 1169 2
1130 1131 4
1130 1170 1
1131 1132 1
1131 1171 3
1132 1133 1
1132 1172 2
1133 1134 5
1133 1173 3
1134 1135 3
1134 1174 1
1135 1136 3
1135 1175 2
1136 1137 1
1136 1176 3
1137 1138 2
1137 1177 4
1138 1139 2
1138 1178 5
1139 1140 2
1139 1179 3
1140 1141 1
1140 1180 2
1141 1142 3
1141 1181 5
1142 1143 4
1142 1182 4
1143 1144 5
1143 1183 2
1144 1145 4
1144 1184 5
1145 1146 4
1145 1185 5
1146 1147 5
1146 1186 3
1147 1148 4
1147 1187 4
1148 1149 1
1148 1188 2
1149 1150 2
1149 1189 1
1150 1151 2
1150 1190 5
1151 1152 3
1151 1191 2
1152 1153 1
1152 1192 1
1153 1154 4
1153 1193 3
1154 1155 5
1154 1194 5
1155 1156 2
1155 1195 4
1156 1157 5
1156 1196 5
1157 1158 2
1157 1197 3
1158 1159 4
1158 1198 5
1159 1160 5
1159 1199 2
1160 1200 4
1161 1162 4
1161 1201 4
1162 1163 2
1162 1202 3
1163 1164 1
1163 1203 5
1164 1165 4
1164 1204 5
1165 1166 1
1165 1205 5
1166 1167 2
1166 1206 1
1167 1168 2
1167 1207 5
1168 1169 5
1168 1208 2
1169 1170 4
1169 1209 2
1170 1171 3
1170 1210 5
1171 1172 4
1171 1211 1
1172 1173 2
1172 1212 4
1173 1174 2
1173 1213 5
1174 1175 5
1174 1214 3
1175 1176 1
1175 1215 1
1176 1177 1
1176 1216 3
1177 1178 5
1177 1217 2
1178 1179 5
1178 1218 4
1179 1180 5
1179 1219 5
1180 1181 2
1180 1220 5
1181 1182 4
1181 1221 4
1182 1183 4
1182 1222 3
1183 1184 1
1183 1223 5
1184 1185 2
1184 1224 3
1185 1186 4
1185 1225 5
1186 1187 1
1186 1226 1
1187 1188 4
1187 1227 3
1188 1189 3
1188 1228 3
1189 1190 4
1189 1229 3
1190 1191 2
1190 1230 4
1191 1192 4
1191 1231 3
1192 1193 2
1192 1232 1
1193 1194 3
1193 1233 2
1194 1195 4
1194 1234 1
1195 1196 4
1195 1235 1
1196 1197 3
1196 1236 2
1197 1198 1
1197 1237 5
1198 1199 5
1198 1238 2
1199 1200 2
1199 1239 5
1200 1240 1
1201 1202 2
1201 1241 2
1202 1203 4
1202 1242 3
1203 1204 2
1203 1243 5
1204 1205 5
1204 1244 5
1205 1206 5
1205 1245 1
1206 1207 3
1206 1246 2
1207 1208 5
1207 1247 3
1208 1209 2
1208 1248 5
1209 1210 4
1209 1249 3
1210 1211 3
1210 1250 4
1211 1212 3
1211 1251 5
1212 1213 4
1212 1252 5
1213 1214 4
1213 1253 4
1214 1215 3
1214 1254 3
1215 1216 4
1215 1255 3
1216 1217 3
1216 1256 2
1217 1218 5
1217 1257 1
1218 1219 5
1218 1258 5
1219 1220 4
1219 1259 2
1220 1221 5
1220 1260 2
1221 1222 1
1221 1261 5
1222 1223 4
1222 1262 2
1223 1224 3
1223 1263 4
1224 1225 3
1224 1264 4
1225 1226 3
1225 1265 4
1226 1227 3
1226 1266 1
1227 1228 4
1227 1267 2
1228 1229 1
1228 1268 5
1229 1230 1
1229 1269 3
1230 1231 3
1230 1270 3
1231 1232 1
1231 1271 3
1232 1233 1
1232 1272 5
1233 1234 3
1233 1273 2
1234 1235 1
1234 1274 3
1235 1236 5
1235 1275 4
1236 1237 2
1236 1276 5
1237 1238 1
1237 1277 1
1238 1239 1
1238 1278 4
1239 1240 3
1239 1279 2
1240 1280 4
1241 1242 4
1241 1281 4
1242 1243 4
1242 1282 5
1243 1244 5
1243 1283 1
1244 1245 5
1244 1284 5
1245 1246 4
1245 1285 4
1246 1247 3
1246 1286 2
1247 1248 4
1247 1287 2
1248 1249 5
1248 1288 2
1249 1250 4
1249 1289 3
1250 1251 5
1250 1290 5
1251 1252 2
1251 1291 4
1252 1253 2
1252 1292 2
1253 1254 2
1253 1293 1
1254 1255 4
1254 1294 4
1255 1256 1
1255 1295 2
1256 1257 1
1256 1296 5
1257 1258 2
1257 1297 3
1258 1259 3
1258 1298 3
1259 1260 1
1259 1299 5
1260 1261 5
1260 1300 2
1261 1262 3
1261 1301 4
1262 1263 4
1262 1302 4
1263 1264 5
1263 1303 1
1264 1265 2
1264 1304 3
1265 1266 5
1265 1305 5
1266 1267 1
1266 1306 2
1267 1268 5
1267 1307 3
1268 1269 2
1268 1308 1
1269 1270 4
1269 1309 3
1270 1271 3
1270 1310 4
1271 1272 2
1271 1311 2
1272 1273 2
1272 1312 5
1273 1274 4
1273 1313 1
1274 1275 3
1274 1314 5
1275 1276 5
1275 1315 5
1276 1277 1
1276 1316 1
1277 1278 4
1277 1317 4
1278 1279 1
1278 1318 3
1279 1280 1
1279 1319 5
1280 1320 2
1281 1282 5
1281 1321 1
1282 1283 5
1282 1322 1
1283 1284 3
1283 1323 2
1284 1285 5
1284 1324 4
1285 1286 3
1285 1325 5
1286 1287 3
1286 1326 2
1287 1288 5
1287 1327 4
1288 1289 1
1288 1328 2
1289 1290 1
1289 1329 3
1290 1291 3
1290 1330 3
1291 1292 3
1291 1331 2
1292 1293 1
1292 1332 3
1293 1294 3
1293 1333 3
1294 1295 1
1294 1334 3
1295 1296 2
1295 1335 3
1296 1297 4
1296 1336 4
1297 1298 3
1297 1337 2
1298 1299 3
1298 1338 5
1299 1300 3
1299 1339 1
1300 1301 1
1300 1340 3
1301 1302 2
1301 1341 3
1302 1303 1
1302 1342 1
1303 1304 5
1303 1343 2
1304 1305 3
1304 1344 5
1305 1306 1
1305 1345 1
1306 1307 2
1306 1346 4
1307 1308 4
1307 1347 5
1308 1309 4
1308 1348 5
1309 1310 1
1309 1349 1
1310 1311 4
1310 1350 1
1311 1312 2
1311 1351 1
1312 1313 2
1312 1352 1
1313 1314 2
1313 1353 5
1314 1315 4
1314 1354 5
1315 1316 2
1315 1355 2
1316 1317 2
1316 1356 1
1317 1318 2
1317 1357 4
1318 1319 2
1318 1358 1
1319 1320 1
1319 1359 5
1320 1360 2
1321 1322 5
1321 1361 3
1322 1323 1
1322 1362 3
1323 1324 2
1323 1363 5
1324 1325 3
1324 1364 5
1325 1326 5
1325 1365 5
1326 1327 4
1326 1366 2
1327 1328 5
1327 1367 1
1328 1329 3
1328 1368 2
1329 1330 5
1329 1369 2
1330 1331 5
1330 1370 5
1331 1332 2
1331 1371 4
1332 1333 4
1332 1372 1
1333 1334 1
1333 1373 3
1334 1335 5
1334 1374 1
1335 1336 4
1335 1375 2
1336 1337 4
1336 1376 1
1337 1338 3
1337 1377 5
1338 1339 1
1338 1378 4
1339 1340 5
1339 1379 3
1340 1341 5
1340 1380 5
1341 1342 1
1341 1381 5
1342 1343 4
1342 1382 1
1343 1344 1
1343 1383 4
1344 1345 2
1344 1384 1
1345 1346 4
1345 1385 3
1346 1347 3
1346 1386 4
1347 1348 4
1347 1387 2
1348 1349 1
1348 1388 2
1349 1350 3
1349 1389 3
1350 1351 3
1350 1390 5
1351 1352 1
1351 1391 2
1352 1353 4
1352 1392 5
1353 1354 2
1353 1393 4
1354 1355 2
1354 1394 4
1355 1356 3
1355 1395 4
1356 1357 3
1356 1396 5
1357 1358 3
1357 1397 3
1358 1359 1
1358 1398 3
1359 1360 3
1359 1399 3
1360 1400 2
1361 1362 5
1361 1401 2
1362 1363 5
1362 1402 3
1363 1364 3
1363 1403 2
1364 1365 2
1364 1404 1
1365 1366 3
1365 1405 1
1366 1367 2
1366 1406 1
1367 1368 2
1367 1407 1
1368 1369 4
1368 1408 5
1369 1370 4
1369 1409 5
1370 1371 3
1370 1410 5
1371 1372 2
1371 1411 5
1372 1373 4
1372 1412 1
1373 1374 1
1373 1413 4
1374 1375 5
1374 1414 1
1375 1376 1
1375 1415 1
1376 1377 4
1376 1416 3
1377 1378 4
1377 1417 2
1378 1379 3
1378 1418 1
1379 1380 3
1379 1419 2
1380 1381 4
1380 1420 1
1381 1382 2
1381 1421 3
1382 1383 1
1382 1422 2
1383 1384 2
1383 1423 1
1384 1385 3
1384 1424 4
1385 1386 2
1385 1425 2
1386 1387 3
1386 1426 3
1387 1388 4
1387 1427 1
1388 1389 3
1388 1428 4
1389 1390 4
1389 1429 3
1390 1391 2
1390 1430 2
1391 1392 1
1391 1431 3
1392 1393 5
1392 1432 2
1393 1394 1
1393 1433 3
1394 1395 4
1394 1434 3
1395 1396 2
1395 1435 1
1396 1397 5
1396 1436 3
1397 1398 3
1397 1437 2
1398 1399 1
1398 1438 4
1399 1400 1
1399 1439 5
1400 1440 5
1401 1402 2
1401 1441 5
1402 1403 2
1402 1442 4
1403 1404 2
1403 1443 3
1404 1405 2
1404 1444 4
1405 1406 1
1405 1445 4
1406 1407 3
1406 1446 2
1407 1408 4
1407 1447 3
1408 1409 5
1408 1448 5
1409 1410 1
1409 1449 3
1410 1411 2
1410 1450 2
1411 1412 3
1411 1451 2
1412 1413 4
1412 1452 3
1413 1414 5
1413 1453 1
1414 1415 4
1414 1454 3
1415 1416 4
1415 1455 5
1416 1417 2
1416 1456 1
1417 1418 5
1417 1457 2
1418 1419 3
1418 1458 1
1419 1420 2
1419 1459 1
1420 1421 3
1420 1460 2
1421 1422 5
1421 1461 3
1422 1423 1
1422 1462 4
1423 1424 3
1423 1463 5
1424 1425 4
1424 1464 3
1425 1426 3
1425 1465 5
1426 1427 1
1426 1466 4
1427 1428 2
1427 1467 2
1428 1429 3
1428 1468 1
1429 1430 5
1429 1469 3
1430 1431 2
1430 1470 4
1431 1432 1
1431 1471 1
1432 1433 5
1432 1472 3
1433 1434 4
1433 1473 4
1434 1435 2
1434 1474 1
1435 1436 2
1435 1475 1
1436 1437 1
1436 1476 2
1437 1438 4
1437 1477 5
1438 1439 5
1438 1478 5
1439 1440 2
1439 1479 3
1440 1480 3
1441 1442 5
1441 1481 4
1442 1443 1
1442 1482 4
1443 1444 2
1443 1483 1
1444 1445 4
1444 1484 5
1445 1446 3
1445 1485 5
1446 1447 5
1446 1486 1
1447 1448 3
1447 1487 3
1448 1449 4
1448 1488 1
1449 1450 5
1449 1489 2
1450 1451 5
1450 1490 4
1451 1452 5
1451 1491 1
1452 1453 2
1452 1492 2
1453 1454 4
1453 1493 4
1454 1455 5
1454 1494 3
1455 1456 2
1455 1495 2
1456 1457 1
1456 1496 5
1457 1458 2
1457 1497 3
1458 1459 1
1458 1498 4
1459 1460 3
1459 1499 5
1460 1461 2
1460 1500 5
1461 1462 2
1461 1501 2
1462 1463 5
1462 1502 1
1463 1464 4
1463 1503 1
1464 1465 3
1464 1504 4
1465 1466 3
1465 1505 5
1466 1467 1
1466 1506 4
1467 1468 3
1467 1507 5
1468 1469 4
1468 1508 5
1469 1470 5
1469 1509 2
1470 1471 5
1470 1510 3
1471 1472 5
1471 1511 2
1472 1473 2
1472 1512 1
1473 1474 5
1473 1513 5
1474 1475 1
1474 1514 1
1475 1476 3
1475 1515 4
1476 1477 4
1476 1516 4
1477 1478 1
1477 1517 1
1478 1479 4
1478 1518 2
1479 1480 5
1479 1519 5
1480 1520 1
1481 1482 3
1481 1521 3
1482 1483 5
1482 1522 5
1483 1484 4
1483 1523 3
1484 1485 2
1484 1524 5
1485 1486 3
1485 1525 5
1486 1487 3
1486 1526 3
1487 1488 3
1487 1527 1
1488 1489 1
1488 1528 3
1489 1490 2
1489 1529 5
1490 1491 2
1490 1530 2
1491 1492 4
1491 1531 2
1492 1493 4
1492 1532 1
1493 1494 3
1493 1533 4
1494 1495 1
1494 1534 1
1495 1496 3
1495 1535 1
1496 1497 3
1496 1536 2
1497 1498 3
1497 1537 1
1498 1499 2
1498 1538 2
1499 1500 4
1499 1539 5
1500 1501 4
1500 1540 1
1501 1502 2
1501 1541 3
1502 1503 5
1502 1542 2
1503 1504 5
1503 1543 4
1504 1505 5
1504 1544 5
1505 1506 5
1505 1545 3
1506 1507 5
1506 1546 5
1507 1508 1
1507 1547 3
1508 1509 3
1508 1548 4
1509 1510 3
1509 1549 1
1510 1511 3
1510 1550 2
1511 1512 2
1511 1551 3
1512 1513 4
1512 1552 5
1513 1514 2
1513 1553 1
1514 1515 3
1514 1554 3
1515 1516 5
1515 1555 3
1516 1517 1
1516 1556 2
1517 1518 4
1517 1557 2
1518 1519 1
1518 1558 4
1519 1520 3
1519 1559 3
1520 1560 1
1521 1522 4
1521 1561 4
1522 1523 5
1522 1562 1
1523 1524 2
1523 1563 1
1524 1525 3
1524 1564 1
1525 1526 1
1525 1565 1
1526 1527 2
1526 1566 3
1527 1528 4
1527 1567 3
1528 1529 1
1528 1568 5
1529 1530 3
1529 1569 2
1530 1531 1
1530 1570 1
1531 1532 3
1531 1571 5
1532 1533 5
1532 1572 4
1533 1534 1
1533 1573 3
1534 1535 5
1534 1574 5
1535 1536 4
1535 1575 3
1536 1537 4
1536 1576 4
1537 1538 3
1537 1577 3
1538 1539 1
1538 1578 1
1539 1540 5
1539 1579 1
1540 1541 5
1540 1580 3
1541 1542 3
1541 1581 2
1542 1543 5
1542 1582 5
1543 1544 5
1543 1583 4
1544 1545 2
1544 1584 3
1545 1546 1
1545 1585 3
1546 1547 2
1546 1586 4
1547 1548 5
1547 1587 1
1548 1549 3
1548 1588 2
1549 1550 5
1549 1589 2
1550 1551 1
1550 1590 4
1551 1552 2
1551 1591 1
1552 1553 2
1552 1592 4
1553 1554 2
1553 1593 5
1554 1555 4
1554 1594 5
1555 1556 2
1555 1595 4
1556 1557 2
1556 1596 5
1557 1558 4
1557 1597 1
1558 1559 5
1558 1598 1
1559 1560 2
1559 1599 4
1560 1600 3
1561 1562 4
1562 1563 4
1563 1564 2
1564 1565 4
1565 1566 4
1566 1567 1
1567 1568 5
1568 1569 1
1569 1570 1
1570 1571 3
1571 1572 1
1572 1573 5
1573 1574 2
1574 1575 4
1575 1576 2
1576 1577 2
1577 1578 2
1578 1579 4
1579 1580 1
1580 1581 1
1581 1582 1
1582 1583 5
1583 1584 5
1584 1585 5
1585 1586 3
1586 1587 1
1587 1588 5
1588 1589 4
1589 1590 4
1590 1591 5
1591 1592 1
1592 1593 3
1593 1594 3
1594 1595 2
1595 1596 3
1596 1597 4
1597 1598 3
1598 1599 1
1599 1600 4
1 1561 4
2 1562 4
3 1563 1
4 1564 3
5 1565 2
6 1566 2
7 1567 4
8 1568 1
9 1569 4
10 1570 4
11 1571 3
12 1572 5
13 1573 1
14 1574 1
15 1575 5
16 1576 2
17 1577 1
18 1578 2
19 1579 4
20 1580 2
21 1581 1
22 1582 3
23 1583 3
24 1584 5
25 1585 5
26 1586 4
27 1587 2
28 1588 1
29 1589 1
30 1590 1
31 1591 5
32 1592 3
33 1593 4
34 1594 5
35 1595 2
36 1596 3
37 1597 4
38 1598 5
39 1599 1
40 1600 1
1 40 4
41 80 1
81 120 1
121 160 1
161 200 5
201 240 4
241 280 5
281 320 1
321 360 1
361 400 1
401 440 2
441 480 1
481 520 4
521 560 2
561 600 2
601 640 5
641 680 1
681 720 1
721 760 2
761 800 5
801 840 4
841 880 5
881 920 5
921 960 1
961 1000 2
1001 1040 1
1041 1080 2
1081 1120 3
1121 1160 2
1161 1200 1
1201 1240 3
1241 1280 4
1281 1320 4
1321 1360 3
1361 1400 5
1401 1440 5
1441 1480 2
1481 1520 1
1521 1560 3
1561 1600 4
